proyfinal/src/viki/013/experimentInOfficeAgust.take6.output/9b4bd764-f94a-4b5f-9473-d1a3114f4ccf.als.out
Reading from standard input... Use '--help' for help.
============================[ Problem Statistics ]=============================
|                                                                             |
|  Number of variables:         87638                                         |
|  Number of clauses:          161767                                         |
|  Parse time:                   0.04 s                                       |
|                                                                             |
============================[ Search Statistics ]==============================
| Conflicts |          ORIGINAL         |          LEARNT          | Progress |
|           |    Vars  Clauses Literals |    Limit  Clauses Lit/Cl |          |
===============================================================================
|       100 |   63259   108314   270781 |    39715      100     10 | 27.818 % |
|       250 |   63255   108246   270631 |    43686      248     54 | 27.822 % |
|       475 |   63255   108246   270631 |    48055      473     73 | 27.822 % |
|       812 |   63237   108172   270460 |    52860      809     65 | 27.843 % |
|      1318 |   63185   107946   269949 |    58146     1309     70 | 27.902 % |
|      2077 |   63144   107751   269559 |    63961     2067     81 | 27.949 % |
|      3216 |   63144   107751   269559 |    70357     3206     74 | 27.949 % |
|      4924 |   63144   107751   269559 |    77393     4914     75 | 27.949 % |
|      7486 |   50748    71345   179880 |    85132     6695     69 | 42.094 % |
|     11330 |   50210    69273   174897 |    93646    10320     62 | 42.708 % |
|     17096 |   49968    68240   172421 |   103010    16029     58 | 42.984 % |
===============================================================================
restarts              : 76
conflicts             : 21161          (6772 /sec)
decisions             : 63844          (0.00 % random) (20432 /sec)
propagations          : 31340674       (10030001 /sec)
conflict literals     : 1184268        (48.71 % deleted)
Memory used           : 33.64 MB
CPU time              : 3.12469 s

UNSATISFIABLE
